
Gurobi 8.1.1 (linux64) logging started Wed Apr 14 17:55:30 2021


Gurobi 8.1.1 (linux64) logging started Wed Apr 14 17:59:07 2021


Gurobi 8.1.1 (linux64) logging started Wed Apr 14 18:00:30 2021


Gurobi 8.1.1 (linux64) logging started Wed Apr 14 18:00:51 2021


Gurobi 8.1.1 (linux64) logging started Wed Apr 14 18:03:16 2021

Academic license - for non-commercial use only
Presolve added 4020 rows and 0 columns
Presolve removed 0 rows and 518 columns
Presolve time: 0.08s
Optimize a model with 598 rows, 2296 columns and 2839 nonzeros
Model has 1495 general constraints
Variable types: 114 continuous, 2182 integer (2074 binary)
Coefficient statistics:
  Matrix range     [1e-07, 1e+00]
  Objective range  [1e+00, 1e+00]
  Bounds range     [1e+00, 2e+02]
  RHS range        [1e+00, 2e+01]
Presolve added 4020 rows and 0 columns
Presolve removed 0 rows and 518 columns
Presolve time: 0.05s
Presolved: 4618 rows, 1778 columns, 12741 nonzeros
Presolved model has 102 SOS constraint(s)
Variable types: 104 continuous, 1674 integer (1674 binary)

Root relaxation: objective 2.474937e-01, 930 iterations, 0.04 seconds

    Nodes    |    Current Node    |     Objective Bounds      |     Work
 Expl Unexpl |  Obj  Depth IntInf | Incumbent    BestBd   Gap | It/Node Time

     0     0    0.24749    0   70          -    0.24749      -     -    0s
H    0     0                       0.3183969    0.24749  22.3%     -    0s
H    0     0                       0.3182253    0.24749  22.2%     -    0s
     0     0     cutoff    0         0.31823    0.31823  0.00%     -    0s

Cutting planes:
  Gomory: 1
  Implied bound: 4
  MIR: 96
  Zero half: 1

Explored 1 nodes (2340 simplex iterations) in 0.23 seconds
Thread count was 8 (of 8 available processors)

Solution count 2: 0.318225 0.318397 

Optimal solution found (tolerance 1.00e-04)
Best objective 3.182253017199e-01, best bound 3.182253017199e-01, gap 0.0000%

Gurobi 8.1.1 (linux64) logging started Wed Apr 14 18:03:17 2021

Academic license - for non-commercial use only
Presolve added 5472 rows and 0 columns
Presolve removed 0 rows and 551 columns
Presolve time: 0.04s
Optimize a model with 602 rows, 3453 columns and 4205 nonzeros
Model has 2545 general constraints
Variable types: 116 continuous, 3337 integer (3228 binary)
Coefficient statistics:
  Matrix range     [1e-07, 1e+00]
  Objective range  [1e+00, 1e+00]
  Bounds range     [1e+00, 2e+02]
  RHS range        [1e+00, 2e+01]
Presolve added 5472 rows and 0 columns
Presolve removed 0 rows and 551 columns
Presolve time: 0.04s
Presolved: 6074 rows, 2902 columns, 16988 nonzeros
Presolved model has 102 SOS constraint(s)
Variable types: 105 continuous, 2797 integer (2797 binary)

Root relaxation: objective 2.080434e-01, 262 iterations, 0.01 seconds

    Nodes    |    Current Node    |     Objective Bounds      |     Work
 Expl Unexpl |  Obj  Depth IntInf | Incumbent    BestBd   Gap | It/Node Time

     0     0    0.20804    0   85          -    0.20804      -     -    0s
H    0     0                       0.3202370    0.20804  35.0%     -    0s
H    0     0                       0.3185895    0.20804  34.7%     -    0s
H    0     0                       0.3185894    0.20804  34.7%     -    0s
     0     0    0.25731    0  134    0.31859    0.25731  19.2%     -    0s
H    0     0                       0.3134446    0.25731  17.9%     -    0s
H    0     0                       0.3131548    0.25731  17.8%     -    0s
     0     0    0.26050    0  110    0.31315    0.26050  16.8%     -    0s
     0     0    0.26456    0  120    0.31315    0.26456  15.5%     -    0s
     0     0    0.26456    0  122    0.31315    0.26456  15.5%     -    0s
     0     0    0.26543    0  132    0.31315    0.26543  15.2%     -    0s
H    0     0                       0.3125508    0.26543  15.1%     -    0s
     0     0    0.26618    0  147    0.31255    0.26618  14.8%     -    0s
     0     0    0.26717    0  140    0.31255    0.26717  14.5%     -    0s
     0     0    0.26718    0  130    0.31255    0.26718  14.5%     -    0s
     0     0    0.26719    0  129    0.31255    0.26719  14.5%     -    0s
H    0     0                       0.3106620    0.26719  14.0%     -    0s
     0     0    0.26719    0  129    0.31066    0.26719  14.0%     -    0s
     0     2    0.26719    0  129    0.31066    0.26719  14.0%     -    0s
H   26    18                       0.3072567    0.28799  6.27%  66.3    0s
H   28    14                       0.2916663    0.28799  1.26%  61.9    0s

Cutting planes:
  Gomory: 2
  Cover: 2
  Implied bound: 38
  Clique: 7
  MIR: 29
  Zero half: 11

Explored 47 nodes (3336 simplex iterations) in 0.52 seconds
Thread count was 8 (of 8 available processors)

Solution count 9: 0.291666 0.307257 0.310662 ... 0.320237

Optimal solution found (tolerance 1.00e-04)
Best objective 2.916662564504e-01, best bound 2.916662564504e-01, gap 0.0000%

Gurobi 8.1.1 (linux64) logging started Wed Apr 14 18:03:18 2021

Academic license - for non-commercial use only
Presolve added 7156 rows and 0 columns
Presolve removed 0 rows and 759 columns
Presolve time: 0.05s
Optimize a model with 606 rows, 5030 columns and 5991 nonzeros
Model has 4015 general constraints
Variable types: 118 continuous, 4912 integer (4802 binary)
Coefficient statistics:
  Matrix range     [1e-07, 1e+00]
  Objective range  [1e+00, 1e+00]
  Bounds range     [1e+00, 2e+02]
  RHS range        [1e+00, 2e+01]
Presolve added 7156 rows and 0 columns
Presolve removed 0 rows and 759 columns
Presolve time: 0.05s
Presolved: 7762 rows, 4271 columns, 22145 nonzeros
Presolved model has 102 SOS constraint(s)
Variable types: 105 continuous, 4166 integer (4166 binary)

Root relaxation: objective 1.934742e-01, 816 iterations, 0.04 seconds

    Nodes    |    Current Node    |     Objective Bounds      |     Work
 Expl Unexpl |  Obj  Depth IntInf | Incumbent    BestBd   Gap | It/Node Time

     0     0    0.19347    0  127          -    0.19347      -     -    0s
H    0     0                       0.3204820    0.19347  39.6%     -    0s
     0     0    0.22021    0  144    0.32048    0.22021  31.3%     -    0s
H    0     0                       0.3185948    0.22021  30.9%     -    0s
H    0     0                       0.3182314    0.22021  30.8%     -    0s
     0     0    0.24565    0  168    0.31823    0.24565  22.8%     -    0s
     0     0    0.24610    0  164    0.31823    0.24610  22.7%     -    0s
     0     0    0.25939    0  173    0.31823    0.25939  18.5%     -    0s
     0     0    0.25946    0  176    0.31823    0.25946  18.5%     -    0s
     0     0    0.25946    0  158    0.31823    0.25946  18.5%     -    0s
     0     0    0.25946    0  137    0.31823    0.25946  18.5%     -    0s
     0     0    0.25946    0  129    0.31823    0.25946  18.5%     -    0s
     0     0    0.25946    0  137    0.31823    0.25946  18.5%     -    0s
     0     0    0.25946    0  134    0.31823    0.25946  18.5%     -    0s
     0     0    0.25946    0  141    0.31823    0.25946  18.5%     -    0s
     0     0    0.25946    0  146    0.31823    0.25946  18.5%     -    0s
     0     0    0.25946    0  146    0.31823    0.25946  18.5%     -    0s
     0     2    0.25946    0  141    0.31823    0.25946  18.5%     -    0s
H   35    32                       0.2764267    0.26339  4.72%   164    0s
H   72    27                       0.2730338    0.26415  3.25%   106    0s
H  115    15                       0.2730338    0.26415  3.25%  79.9    0s
H  173     1                       0.2726259    0.26939  1.19%  64.0    0s
H  175     1                       0.2724420    0.27225  0.07%  63.9    0s

Cutting planes:
  Gomory: 2
  Cover: 7
  Implied bound: 146
  Clique: 95
  MIR: 21
  Zero half: 43

Explored 177 nodes (13538 simplex iterations) in 0.96 seconds
Thread count was 8 (of 8 available processors)

Solution count 8: 0.272442 0.272626 0.273034 ... 0.320482

Optimal solution found (tolerance 1.00e-04)
Best objective 2.724420062468e-01, best bound 2.724420062468e-01, gap 0.0000%

Gurobi 8.1.1 (linux64) logging started Wed Apr 14 18:03:19 2021

Academic license - for non-commercial use only
Presolve added 9190 rows and 0 columns
Presolve removed 0 rows and 1037 columns
Presolve time: 0.06s
Optimize a model with 610 rows, 7027 columns and 8197 nonzeros
Model has 5905 general constraints
Variable types: 120 continuous, 6907 integer (6796 binary)
Coefficient statistics:
  Matrix range     [1e-07, 1e+00]
  Objective range  [1e+00, 1e+00]
  Bounds range     [1e+00, 2e+02]
  RHS range        [1e+00, 2e+01]
Presolve added 9190 rows and 0 columns
Presolve removed 0 rows and 1037 columns
Presolve time: 0.06s
Presolved: 9800 rows, 5990 columns, 28354 nonzeros
Presolved model has 102 SOS constraint(s)
Variable types: 105 continuous, 5885 integer (5885 binary)

Root relaxation: objective 1.875959e-01, 2792 iterations, 0.15 seconds

    Nodes    |    Current Node    |     Objective Bounds      |     Work
 Expl Unexpl |  Obj  Depth IntInf | Incumbent    BestBd   Gap | It/Node Time

     0     0    0.18760    0  114          -    0.18760      -     -    0s
     0     0    0.22415    0  124          -    0.22415      -     -    0s
H    0     0                       0.4078728    0.22415  45.0%     -    0s
H    0     0                       0.3916172    0.22415  42.8%     -    0s
H    0     0                       0.3913278    0.22415  42.7%     -    0s
     0     0    0.23118    0  204    0.39133    0.23118  40.9%     -    0s
H    0     0                       0.3346301    0.23118  30.9%     -    0s
H    0     0                       0.3341543    0.23118  30.8%     -    0s
     0     0    0.23584    0  234    0.33415    0.23584  29.4%     -    0s
     0     0    0.23592    0  131    0.33415    0.23592  29.4%     -    0s
     0     0    0.23676    0  155    0.33415    0.23676  29.1%     -    0s
     0     0    0.23880    0  144    0.33415    0.23880  28.5%     -    0s
     0     0    0.23895    0  152    0.33415    0.23895  28.5%     -    0s
     0     0    0.23903    0  157    0.33415    0.23903  28.5%     -    0s
     0     0    0.23931    0  151    0.33415    0.23931  28.4%     -    0s
     0     0    0.23939    0  163    0.33415    0.23939  28.4%     -    0s
     0     0    0.23966    0  174    0.33415    0.23966  28.3%     -    0s
     0     0    0.23967    0  178    0.33415    0.23967  28.3%     -    0s
     0     0    0.23971    0  173    0.33415    0.23971  28.3%     -    0s
     0     0    0.23971    0  176    0.33415    0.23971  28.3%     -    0s
H    0     0                       0.2711623    0.23971  11.6%     -    0s
     0     0    0.24250    0  130    0.27116    0.24250  10.6%     -    0s
H    0     0                       0.2687075    0.24250  9.75%     -    0s
     0     0    0.24253    0  119    0.26871    0.24253  9.74%     -    0s
     0     0    0.24328    0  140    0.26871    0.24328  9.46%     -    0s
     0     0    0.24328    0  111    0.26871    0.24328  9.46%     -    1s
     0     0    0.24328    0  122    0.26871    0.24328  9.46%     -    1s
     0     0    0.24328    0  107    0.26871    0.24328  9.46%     -    1s
     0     0    0.24328    0  124    0.26871    0.24328  9.46%     -    1s
     0     0    0.24328    0  116    0.26871    0.24328  9.46%     -    1s
     0     0    0.24328    0  119    0.26871    0.24328  9.46%     -    1s
     0     0    0.24328    0  112    0.26871    0.24328  9.46%     -    1s
     0     0    0.24687    0  125    0.26871    0.24687  8.13%     -    1s
     0     0    0.24687    0  124    0.26871    0.24687  8.13%     -    1s
     0     0    0.24687    0  118    0.26871    0.24687  8.13%     -    1s
     0     0    0.24687    0  117    0.26871    0.24687  8.13%     -    1s
     0     0    0.24687    0  115    0.26871    0.24687  8.13%     -    1s
     0     0    0.24687    0  112    0.26871    0.24687  8.13%     -    1s
     0     0    0.24687    0   99    0.26871    0.24687  8.13%     -    1s
     0     0    0.24687    0   95    0.26871    0.24687  8.13%     -    1s
     0     0    0.24687    0  109    0.26871    0.24687  8.13%     -    1s
     0     0    0.24690    0  119    0.26871    0.24690  8.12%     -    1s
     0     0    0.24690    0  118    0.26871    0.24690  8.12%     -    1s
     0     0    0.24690    0  117    0.26871    0.24690  8.12%     -    1s
     0     0    0.24690    0  115    0.26871    0.24690  8.12%     -    1s
     0     0    0.24690    0  124    0.26871    0.24690  8.12%     -    1s
     0     0    0.24690    0  124    0.26871    0.24690  8.12%     -    1s
     0     2    0.24690    0  123    0.26871    0.24690  8.12%     -    1s
H  300   103                       0.2655440    0.25994  2.11%  65.4    1s
H  342    90                       0.2655437    0.25994  2.11%  63.6    1s

Cutting planes:
  Gomory: 3
  Cover: 2
  Implied bound: 83
  Clique: 4
  MIR: 38
  Zero half: 8

Explored 596 nodes (45954 simplex iterations) in 1.82 seconds
Thread count was 8 (of 8 available processors)

Solution count 9: 0.265544 0.265544 0.268708 ... 0.407873

Optimal solution found (tolerance 1.00e-04)
Best objective 2.655437125014e-01, best bound 2.655437125014e-01, gap 0.0000%

Gurobi 8.1.1 (linux64) logging started Wed Apr 14 18:03:21 2021

Academic license - for non-commercial use only
Presolve added 11576 rows and 0 columns
Presolve removed 0 rows and 1383 columns
Presolve time: 0.06s
Optimize a model with 614 rows, 9444 columns and 10823 nonzeros
Model has 8215 general constraints
Variable types: 122 continuous, 9322 integer (9210 binary)
Coefficient statistics:
  Matrix range     [1e-07, 1e+00]
  Objective range  [1e+00, 1e+00]
  Bounds range     [1e+00, 2e+02]
  RHS range        [1e+00, 2e+01]
Presolve added 11576 rows and 0 columns
Presolve removed 0 rows and 1383 columns
Presolve time: 0.06s
Presolved: 12190 rows, 8061 columns, 35619 nonzeros
Presolved model has 102 SOS constraint(s)
Variable types: 105 continuous, 7956 integer (7956 binary)

Root relaxation: objective 1.831133e-01, 4311 iterations, 0.30 seconds

    Nodes    |    Current Node    |     Objective Bounds      |     Work
 Expl Unexpl |  Obj  Depth IntInf | Incumbent    BestBd   Gap | It/Node Time

     0     0    0.18311    0  300          -    0.18311      -     -    0s
     0     0    0.22328    0  186          -    0.22328      -     -    0s
H    0     0                       0.4821235    0.22328  53.7%     -    0s
H    0     0                       0.4628462    0.22328  51.8%     -    0s
H    0     0                       0.4192446    0.22328  46.7%     -    0s
H    0     0                       0.3198977    0.22328  30.2%     -    0s
     0     0    0.22419    0  199    0.31990    0.22419  29.9%     -    0s
H    0     0                       0.3135099    0.22419  28.5%     -    0s
     0     0    0.22420    0  204    0.31351    0.22420  28.5%     -    0s
     0     0    0.22421    0  206    0.31351    0.22421  28.5%     -    0s
     0     0    0.22423    0  197    0.31351    0.22423  28.5%     -    0s
H    0     0                       0.3087043    0.22423  27.4%     -    1s
H    0     0                       0.3083866    0.22423  27.3%     -    1s
     0     0    0.22429    0  220    0.30839    0.22429  27.3%     -    1s
H    0     0                       0.3081236    0.22429  27.2%     -    1s
     0     0    0.22429    0  215    0.30812    0.22429  27.2%     -    1s
     0     0    0.22455    0  203    0.30812    0.22455  27.1%     -    1s
     0     0    0.22456    0  217    0.30812    0.22456  27.1%     -    1s
     0     0    0.22466    0  184    0.30812    0.22466  27.1%     -    1s
H    0     0                       0.2970605    0.22466  24.4%     -    1s
     0     0    0.22470    0  187    0.29706    0.22470  24.4%     -    1s
     0     0    0.22473    0  217    0.29706    0.22473  24.3%     -    1s
     0     0    0.22473    0  214    0.29706    0.22473  24.3%     -    1s
     0     0    0.22476    0  218    0.29706    0.22476  24.3%     -    1s
     0     0    0.22477    0  224    0.29706    0.22477  24.3%     -    1s
     0     0    0.22477    0  230    0.29706    0.22477  24.3%     -    1s
     0     0    0.22477    0  215    0.29706    0.22477  24.3%     -    1s
     0     2    0.22477    0  215    0.29706    0.22477  24.3%     -    1s
H   34    24                       0.2729209    0.22815  16.4%   157    2s
H   64    26                       0.2728844    0.22873  16.2%   162    3s
H   65    26                       0.2728762    0.22873  16.2%   161    3s
H   69    27                       0.2725627    0.22873  16.1%   166    3s
H   71    27                       0.2709652    0.22873  15.6%   162    3s
H   73    28                       0.2698439    0.22873  15.2%   160    3s
H  204   122                       0.2697937    0.22874  15.2%   102    4s
H  205   120                       0.2628004    0.22874  13.0%   101    4s
   306   190    0.23564   27   61    0.26280    0.22874  13.0%  92.2    5s
H  808   425                       0.2566867    0.22876  10.9%  82.8    6s
H 1525   877                       0.2550511    0.22991  9.86%  68.5    9s
H 1525   833                       0.2520058    0.22991  8.77%  68.5    9s
  1534   845    0.23164   27  143    0.25201    0.23013  8.68%  71.5   10s
H 1739   820                       0.2510832    0.23381  6.88%  70.6   10s
H 4988   552                       0.2510827    0.24506  2.40%  46.2   12s

Cutting planes:
  Gomory: 6
  Implied bound: 28
  Clique: 3
  MIR: 12
  Flow cover: 81
  Inf proof: 5
  Zero half: 75

Explored 7114 nodes (304792 simplex iterations) in 12.90 seconds
Thread count was 8 (of 8 available processors)

Solution count 10: 0.251083 0.251083 0.252006 ... 0.272563

Optimal solution found (tolerance 1.00e-04)
Best objective 2.510826781130e-01, best bound 2.510826781130e-01, gap 0.0000%

Gurobi 8.1.1 (linux64) logging started Wed Apr 14 18:03:34 2021

Academic license - for non-commercial use only
Presolve added 14314 rows and 0 columns
Presolve removed 0 rows and 1797 columns
Presolve time: 0.08s
Optimize a model with 618 rows, 12281 columns and 13869 nonzeros
Model has 10945 general constraints
Variable types: 124 continuous, 12157 integer (12044 binary)
Coefficient statistics:
  Matrix range     [1e-07, 1e+00]
  Objective range  [1e+00, 1e+00]
  Bounds range     [1e+00, 2e+02]
  RHS range        [1e+00, 2e+01]
Presolve added 14314 rows and 0 columns
Presolve removed 0 rows and 1797 columns
Presolve time: 0.08s
Presolved: 14932 rows, 10484 columns, 43940 nonzeros
Presolved model has 102 SOS constraint(s)
Variable types: 105 continuous, 10379 integer (10379 binary)

Root relaxation: objective 1.790776e-01, 6483 iterations, 0.59 seconds

    Nodes    |    Current Node    |     Objective Bounds      |     Work
 Expl Unexpl |  Obj  Depth IntInf | Incumbent    BestBd   Gap | It/Node Time

     0     0    0.17908    0  309          -    0.17908      -     -    0s
H    0     0                       0.4682742    0.17908  61.8%     -    0s
H    0     0                       0.4423457    0.17908  59.5%     -    1s
     0     0    0.21490    0  214    0.44235    0.21490  51.4%     -    1s
H    0     0                       0.3319517    0.21490  35.3%     -    1s
H    0     0                       0.3270326    0.21490  34.3%     -    1s
H    0     0                       0.3139696    0.21490  31.6%     -    1s
     0     0    0.21490    0  213    0.31397    0.21490  31.6%     -    1s
     0     0    0.21534    0  224    0.31397    0.21534  31.4%     -    1s
     0     0    0.21547    0  385    0.31397    0.21547  31.4%     -    1s
H    0     0                       0.3121090    0.21547  31.0%     -    1s
H    0     0                       0.2844718    0.21547  24.3%     -    1s
     0     0    0.21678    0  131    0.28447    0.21678  23.8%     -    1s
     0     0    0.21678    0  133    0.28447    0.21678  23.8%     -    1s
     0     0    0.21704    0  133    0.28447    0.21704  23.7%     -    1s
     0     0    0.21704    0  127    0.28447    0.21704  23.7%     -    1s
     0     0    0.21717    0  113    0.28447    0.21717  23.7%     -    1s
     0     0    0.21722    0  129    0.28447    0.21722  23.6%     -    1s
     0     0    0.21727    0  188    0.28447    0.21727  23.6%     -    1s
     0     0    0.21734    0  199    0.28447    0.21734  23.6%     -    2s
H    0     0                       0.2675285    0.21734  18.8%     -    2s
     0     0    0.21747    0  140    0.26753    0.21747  18.7%     -    2s
H    0     0                       0.2398672    0.21747  9.34%     -    2s
     0     0    0.21749    0  130    0.23987    0.21749  9.33%     -    2s
     0     0    0.21773    0  130    0.23987    0.21773  9.23%     -    2s
     0     0    0.21773    0  129    0.23987    0.21773  9.23%     -    2s
     0     0    0.21774    0  126    0.23987    0.21774  9.22%     -    2s
     0     0    0.21774    0  121    0.23987    0.21774  9.22%     -    2s
     0     0    0.21777    0  123    0.23987    0.21777  9.21%     -    2s
     0     0    0.21777    0  115    0.23987    0.21777  9.21%     -    2s
     0     2    0.21777    0  115    0.23987    0.21777  9.21%     -    2s
H   36    13                       0.2389442    0.21875  8.45%   180    4s
    79    37    0.22523   13  115    0.23894    0.21875  8.45%   129    5s
H  201   117                       0.2381729    0.21875  8.16%   117    8s
   542   330    0.22524   15  136    0.23817    0.21973  7.75%   104   10s
  1408   912    0.23204   24   69    0.23817    0.22139  7.05%   100   15s
  1591  1066    0.22662   32  210    0.23817    0.22662  4.85%  11.1   20s

Cutting planes:
  Gomory: 4
  Cover: 6
  Implied bound: 23
  Clique: 5
  MIR: 21
  Flow cover: 143
  Zero half: 59

Explored 2800 nodes (278361 simplex iterations) in 22.25 seconds
Thread count was 8 (of 8 available processors)

Solution count 10: 0.238173 0.238944 0.239867 ... 0.442346

Optimal solution found (tolerance 1.00e-04)
Best objective 2.381728933724e-01, best bound 2.381728933724e-01, gap 0.0000%

Gurobi 8.1.1 (linux64) logging started Wed Apr 14 18:03:57 2021

Academic license - for non-commercial use only
Presolve added 17404 rows and 0 columns
Presolve removed 0 rows and 2279 columns
Presolve time: 0.10s
Optimize a model with 622 rows, 15538 columns and 17335 nonzeros
Model has 14095 general constraints
Variable types: 126 continuous, 15412 integer (15298 binary)
Coefficient statistics:
  Matrix range     [1e-07, 1e+00]
  Objective range  [1e+00, 1e+00]
  Bounds range     [1e+00, 2e+02]
  RHS range        [1e+00, 2e+01]
Presolve added 17404 rows and 0 columns
Presolve removed 0 rows and 2279 columns
Presolve time: 0.10s
Presolved: 18026 rows, 13259 columns, 53317 nonzeros
Presolved model has 102 SOS constraint(s)
Variable types: 105 continuous, 13154 integer (13154 binary)

Root relaxation: objective 1.751315e-01, 6131 iterations, 0.29 seconds

    Nodes    |    Current Node    |     Objective Bounds      |     Work
 Expl Unexpl |  Obj  Depth IntInf | Incumbent    BestBd   Gap | It/Node Time

     0     0    0.17513    0  315          -    0.17513      -     -    0s
H    0     0                       0.4920079    0.17513  64.4%     -    0s
H    0     0                       0.4917156    0.17513  64.4%     -    0s
     0     0    0.18908    0  454    0.49172    0.18908  61.5%     -    0s
     0     0    0.18908    0  451    0.49172    0.18908  61.5%     -    0s
H    0     0                       0.3851273    0.18908  50.9%     -    1s
H    0     0                       0.2995035    0.18908  36.9%     -    1s
H    0     0                       0.2965844    0.18908  36.2%     -    1s
H    0     0                       0.2923638    0.18908  35.3%     -    1s
     0     0    0.20754    0  360    0.29236    0.20754  29.0%     -    1s
     0     0    0.20762    0  361    0.29236    0.20762  29.0%     -    1s
     0     0    0.20958    0  377    0.29236    0.20958  28.3%     -    1s
H    0     0                       0.2892329    0.20958  27.5%     -    1s
     0     0    0.20958    0  377    0.28923    0.20958  27.5%     -    1s
     0     0    0.20959    0  394    0.28923    0.20959  27.5%     -    1s
H    0     0                       0.2889431    0.20959  27.5%     -    1s
     0     0    0.20959    0  392    0.28894    0.20959  27.5%     -    1s
     0     0    0.20959    0  396    0.28894    0.20959  27.5%     -    1s
     0     0    0.20959    0  388    0.28894    0.20959  27.5%     -    1s
H    0     0                       0.2424483    0.20959  13.6%     -    1s
     0     0    0.20993    0  454    0.24245    0.20993  13.4%     -    1s
H    0     0                       0.2395491    0.20993  12.4%     -    2s
     0     0    0.20998    0  125    0.23955    0.20998  12.3%     -    2s
     0     0    0.21041    0  146    0.23955    0.21041  12.2%     -    2s
     0     0    0.21045    0  130    0.23955    0.21045  12.1%     -    2s
     0     0    0.21068    0  147    0.23955    0.21068  12.1%     -    2s
     0     0    0.21068    0  147    0.23955    0.21068  12.1%     -    2s
     0     0    0.21088    0  138    0.23955    0.21088  12.0%     -    2s
     0     0    0.21088    0  127    0.23955    0.21088  12.0%     -    2s
     0     0    0.21088    0  152    0.23955    0.21088  12.0%     -    2s
     0     0    0.21088    0  148    0.23955    0.21088  12.0%     -    2s
     0     0    0.21090    0  136    0.23955    0.21090  12.0%     -    2s
     0     0    0.21090    0  126    0.23955    0.21090  12.0%     -    3s
     0     2    0.21090    0  123    0.23955    0.21090  12.0%     -    3s
    13    18    0.21237    4  134    0.23955    0.21237  11.3%   243    6s
H   33    32                       0.2395483    0.21243  11.3%   214    7s
H   64    55                       0.2362890    0.21243  10.1%   189    8s
H  114    99                       0.2362840    0.21243  10.1%   157    9s
H  121   105                       0.2355570    0.21243  9.82%   164    9s
   146   121    0.21640   16  111    0.23556    0.21243  9.82%   143   10s
H  606   469                       0.2347168    0.21343  9.07%  88.2   14s
   781   585 infeasible   36         0.23472    0.21343  9.07%  80.4   15s
H 1250   921                       0.2347166    0.21418  8.75%  72.0   16s
  1548  1118    0.23420   29  133    0.23472    0.21418  8.75%  69.4   20s
  1577  1137    0.22593   24  358    0.23472    0.21546  8.21%  68.1   25s
  1582  1146    0.22153   16  200    0.23472    0.21738  7.39%  15.5   31s
  1757  1179    0.23467   26  101    0.23472    0.22198  5.43%  43.6   35s
  2584  1287     cutoff   30         0.23472    0.22497  4.15%  77.2   40s
  3774  1342    0.23079   26  119    0.23472    0.22859  2.61%  88.2   45s
  4859  1256    0.23346   31  102    0.23472    0.22964  2.16%  92.0   50s
  6741  1494    0.23455   36   67    0.23472    0.23111  1.54%  94.4   55s
  8478  1507    0.23306   29  114    0.23472    0.23204  1.14%  96.2   60s
 10524  1305    0.23435   31  110    0.23472    0.23292  0.77%  97.0   65s
 12721   789    0.23398   36  115    0.23472    0.23374  0.41%  96.1   72s
 14508    40     cutoff   40         0.23472    0.23434  0.16%  93.0   75s

Cutting planes:
  Gomory: 7
  Cover: 28
  Implied bound: 249
  Clique: 1
  MIR: 29
  Flow cover: 396
  Inf proof: 2
  Zero half: 120

Explored 14778 nodes (1486290 simplex iterations) in 75.57 seconds
Thread count was 8 (of 8 available processors)

Solution count 10: 0.234717 0.234717 0.235557 ... 0.289233

Optimal solution found (tolerance 1.00e-04)
Best objective 2.347166052506e-01, best bound 2.347166052506e-01, gap 0.0000%

Gurobi 8.1.1 (linux64) logging started Wed Apr 14 18:05:13 2021

Academic license - for non-commercial use only
Presolve added 20846 rows and 0 columns
Presolve removed 0 rows and 2829 columns
Presolve time: 0.12s
Optimize a model with 626 rows, 19215 columns and 21221 nonzeros
Model has 17665 general constraints
Variable types: 128 continuous, 19087 integer (18972 binary)
Coefficient statistics:
  Matrix range     [1e-07, 1e+00]
  Objective range  [1e+00, 1e+00]
  Bounds range     [1e+00, 2e+02]
  RHS range        [1e+00, 2e+01]
Presolve added 20846 rows and 0 columns
Presolve removed 0 rows and 2829 columns
Presolve time: 0.12s
Presolved: 21472 rows, 16386 columns, 63750 nonzeros
Presolved model has 102 SOS constraint(s)
Variable types: 105 continuous, 16281 integer (16281 binary)

Root relaxation: objective 1.715600e-01, 6340 iterations, 0.43 seconds

    Nodes    |    Current Node    |     Objective Bounds      |     Work
 Expl Unexpl |  Obj  Depth IntInf | Incumbent    BestBd   Gap | It/Node Time

     0     0    0.17156    0  309          -    0.17156      -     -    0s
H    0     0                       0.4765271    0.17156  64.0%     -    0s
     0     0    0.18461    0  353    0.47653    0.18461  61.3%     -    1s
H    0     0                       0.3560327    0.18461  48.1%     -    1s
H    0     0                       0.3223512    0.18461  42.7%     -    1s
     0     0    0.18461    0  351    0.32235    0.18461  42.7%     -    1s
     0     0    0.20149    0  514    0.32235    0.20149  37.5%     -    1s
H    0     0                       0.2970184    0.20149  32.2%     -    1s
     0     0    0.20151    0  504    0.29702    0.20151  32.2%     -    1s
     0     0    0.20324    0  391    0.29702    0.20324  31.6%     -    2s
H    0     0                       0.2886898    0.20324  29.6%     -    2s
     0     0    0.20368    0  389    0.28869    0.20368  29.4%     -    2s
     0     0    0.20455    0  407    0.28869    0.20455  29.1%     -    2s
     0     0    0.20463    0  398    0.28869    0.20463  29.1%     -    2s
H    0     0                       0.2363216    0.20463  13.4%     -    2s
H    0     0                       0.2330397    0.20463  12.2%     -    2s
H    0     0                       0.2293836    0.20463  10.8%     -    2s
     0     0    0.20482    0  355    0.22938    0.20482  10.7%     -    2s
     0     0    0.20482    0  138    0.22938    0.20482  10.7%     -    2s
     0     0    0.20491    0  141    0.22938    0.20491  10.7%     -    2s
     0     0    0.20491    0  135    0.22938    0.20491  10.7%     -    2s
     0     0    0.20491    0  145    0.22938    0.20491  10.7%     -    2s
     0     0    0.20492    0  131    0.22938    0.20492  10.7%     -    3s
     0     0    0.20493    0  138    0.22938    0.20493  10.7%     -    3s
     0     0    0.20495    0  129    0.22938    0.20495  10.7%     -    3s
     0     0    0.20495    0  156    0.22938    0.20495  10.7%     -    3s
     0     0    0.20496    0  127    0.22938    0.20496  10.6%     -    3s
     0     0    0.20506    0  148    0.22938    0.20506  10.6%     -    3s
     0     0    0.20511    0  139    0.22938    0.20511  10.6%     -    3s
     0     0    0.20515    0  140    0.22938    0.20515  10.6%     -    3s
     0     0    0.20526    0  134    0.22938    0.20526  10.5%     -    3s
     0     0    0.20526    0  135    0.22938    0.20526  10.5%     -    3s
     0     0    0.20529    0  132    0.22938    0.20529  10.5%     -    3s
     0     0    0.20529    0  151    0.22938    0.20529  10.5%     -    3s
     0     0    0.20529    0  126    0.22938    0.20529  10.5%     -    3s
     0     0    0.20529    0  143    0.22938    0.20529  10.5%     -    4s
     0     0    0.20529    0  143    0.22938    0.20529  10.5%     -    4s
     0     2    0.20529    0  143    0.22938    0.20529  10.5%     -    5s
     3     6     cutoff    2         0.22938    0.20597  10.2%   337   10s
H   30    24                       0.2290935    0.20643  9.89%   282   14s
    37    23 infeasible    6         0.22909    0.20643  9.89%   252   15s
H   71    37                       0.2290528    0.20643  9.88%   201   16s
H   73    38                       0.2282736    0.20643  9.57%   195   16s
H  149    89                       0.2282733    0.20643  9.57%   171   19s
   243   150    0.21635   20   97    0.22827    0.20643  9.57%   141   20s
   861   596    0.20969    9  150    0.22827    0.20678  9.42%   105   25s
  1448  1003    0.21323   20  120    0.22827    0.20846  8.68%  91.8   30s
  1473  1019    0.22620   33  282    0.22827    0.20846  8.68%  90.3   35s
  1486  1031    0.21081   11  372    0.22827    0.20920  8.36%  21.5   41s
  1530  1053    0.22235   16  273    0.22827    0.21305  6.67%  37.4   45s
  1702  1078    0.21901   17  218    0.22827    0.21410  6.21%  71.6   50s
  2091  1044     cutoff   22         0.22827    0.21893  4.09%   124   55s
  2483   928    0.22653   26  102    0.22827    0.22317  2.24%   150   60s
  2975   711     cutoff   25         0.22827    0.22517  1.36%   170   65s
  3660   303     cutoff   29         0.22827    0.22813  0.06%   179   70s

Cutting planes:
  Gomory: 4
  Cover: 7
  Implied bound: 253
  Clique: 1
  MIR: 19
  StrongCG: 1
  Flow cover: 506
  Zero half: 128

Explored 3763 nodes (805174 simplex iterations) in 70.30 seconds
Thread count was 8 (of 8 available processors)

Solution count 10: 0.228273 0.228274 0.228274 ... 0.297018

Optimal solution found (tolerance 1.00e-04)
Best objective 2.282732827153e-01, best bound 2.282732827153e-01, gap 0.0000%
